(declare-fun var0 () String)
(assert (str.in.re var0 (re.++ (re.* (re.union (str.to.re "dd") (str.to.re "ee"))) (re.++ (re.* (re.+ (str.to.re "cc"))) (re.++ (re.* (re.+ (str.to.re "bb"))) (re.++ (re.union (re.+ (str.to.re "99")) (re.* (str.to.re "aaa"))) (re.++ (re.* (re.+ (str.to.re "888"))) (re.++ (re.union (re.+ (str.to.re "6")) (re.+ (str.to.re "77"))) (re.++ (re.+ (re.* (str.to.re "55"))) (re.++ (re.+ (re.* (str.to.re "4"))) (re.++ (re.+ (re.union (str.to.re "2") (str.to.re "33"))) (re.* (re.union (str.to.re "00") (str.to.re "1"))))))))))))))
(assert (<= 401 (str.len var0)))
(check-sat)